Minimize
  - 10 y_0 - 10 y_1 - 26 y_2 - 21 y_3 - 30 y_4 - 16 y_5 - 7 y_6 - 9 y_7
   - 17 y_8 - 23 y_9 - 26 y_10 - 17 y_11 - 20 y_12 - 23 y_13 - 17 y_14
   - 22 y_15 - 35 y_16 - 11 y_17 - 15 y_18 - 7 y_19 - 17 y_20 - 9 y_21
   - 21 y_22 - 26 y_23 - 21 y_24 - 18 y_25 - 20 y_26 - 27 y_27 - 6 y_28
   - 25 y_29 - 21 y_30 - 7 y_31 - 13 y_32 - 23 y_33 - 23 y_34 - 11 y_35
   - 13 y_36 - 17 y_37 - 36 y_38 - 26 y_39 - 15 y_40 - 15 y_41 - 19 y_42
   - 26 y_43 - 13 y_44 - 17 y_45 - y_46 - 21 y_47 - 27 y_48 - 21 y_49
   - 11 y_50 - 17 y_51 - 7 y_52 - 24 y_53 - 21 y_54 - 26 y_55 - 20 y_56
   - 33 y_57 - 9 y_58 - 22 y_59 - 13 y_60 - 15 y_61 - 25 y_62 - 5 y_63
   - 24 y_64 - 26 y_65 - 16 y_66 - 27 y_67 - 6 y_68 - 20 y_69 - 26 y_70
   - 16 y_71 - 25 y_72 - 22 y_73 - 20 y_74 - 15 y_75 - 5 y_76 - 29 y_77
   - 20 y_78 - 20 y_79 - 9 y_80 - 18 y_81 - 26 y_82 - 29 y_83 - 11 y_84
   - 18 y_85 - 22 y_86 - 28 y_87 - 20 y_88 - 34 y_89 - 30 y_90 - 27 y_92
   - 23 y_93 - 25 y_94 - 11 y_95 - 24 y_96 - 15 y_97 - 23 y_98 - 16 y_99
   + 1891 Constant
Subject To
 c_0: y_26 = 1
 c_1_0: y_0 + y_80 >= 1
 c_1_1: y_1 + y_7 + y_21 >= 1
 c_1_2: y_2 + y_23 >= 1
 c_1_3: y_3 >= 1
 c_1_4: y_4 >= 1
 c_1_5: y_5 + y_99 >= 1
 c_1_6: y_6 + y_68 >= 1
 c_1_7: y_1 + y_7 + y_21 + y_52 >= 1
 c_1_8: y_8 >= 1
 c_1_9: y_9 >= 1
 c_1_10: y_10 + y_29 >= 1
 c_1_11: y_11 + y_41 + y_85 >= 1
 c_1_12: y_12 + y_42 >= 1
 c_1_13: y_13 + y_33 >= 1
 c_1_14: y_14 + y_99 >= 1
 c_1_15: y_15 + y_53 >= 1
 c_1_16: y_16 >= 1
 c_1_17: y_17 >= 1
 c_1_18: y_18 + y_37 >= 1
 c_1_19: y_19 >= 1
 c_1_20: y_20 + y_45 + y_71 >= 1
 c_1_21: y_1 + y_7 + y_21 + y_52 >= 1
 c_1_22: y_22 + y_73 >= 1
 c_1_23: y_2 + y_23 >= 1
 c_1_24: y_24 + y_49 >= 1
 c_1_25: y_25 >= 1
 c_1_26: y_26 + y_78 >= 1
 c_1_27: y_27 >= 1
 c_1_28: y_28 >= 1
 c_1_29: y_10 + y_29 >= 1
 c_1_30: y_30 >= 1
 c_1_31: y_31 + y_52 + y_63 >= 1
 c_1_32: y_32 >= 1
 c_1_33: y_13 + y_33 >= 1
 c_1_34: y_34 >= 1
 c_1_35: y_35 + y_84 >= 1
 c_1_36: y_36 >= 1
 c_1_37: y_18 + y_37 >= 1
 c_1_38: y_38 >= 1
 c_1_39: y_39 + y_82 >= 1
 c_1_40: y_40 >= 1
 c_1_41: y_11 + y_41 >= 1
 c_1_42: y_12 + y_42 + y_81 >= 1
 c_1_43: y_43 >= 1
 c_1_44: y_44 >= 1
 c_1_45: y_20 + y_45 >= 1
 c_1_46: y_46 + y_91 >= 1
 c_1_47: y_47 >= 1
 c_1_48: y_48 >= 1
 c_1_49: y_24 + y_49 >= 1
 c_1_50: y_50 >= 1
 c_1_51: y_51 >= 1
 c_1_52: y_7 + y_21 + y_31 + y_52 >= 1
 c_1_53: y_15 + y_53 >= 1
 c_1_54: y_54 >= 1
 c_1_55: y_55 >= 1
 c_1_56: y_56 >= 1
 c_1_57: y_57 + y_89 >= 1
 c_1_58: y_58 >= 1
 c_1_59: y_59 >= 1
 c_1_60: y_60 >= 1
 c_1_61: y_61 >= 1
 c_1_62: y_62 >= 1
 c_1_63: y_31 + y_63 >= 1
 c_1_64: y_64 + y_96 >= 1
 c_1_65: y_65 + y_92 >= 1
 c_1_66: y_66 >= 1
 c_1_67: y_67 >= 1
 c_1_68: y_6 + y_68 >= 1
 c_1_69: y_69 + y_88 >= 1
 c_1_70: y_70 >= 1
 c_1_71: y_20 + y_71 >= 1
 c_1_72: y_72 >= 1
 c_1_73: y_22 + y_73 >= 1
 c_1_74: y_74 >= 1
 c_1_75: y_75 >= 1
 c_1_76: y_76 >= 1
 c_1_77: y_77 >= 1
 c_1_78: y_26 + y_78 + y_85 >= 1
 c_1_79: y_79 >= 1
 c_1_80: y_0 + y_80 >= 1
 c_1_81: y_42 + y_81 >= 1
 c_1_82: y_39 + y_82 >= 1
 c_1_83: y_83 >= 1
 c_1_84: y_35 + y_84 >= 1
 c_1_85: y_11 + y_78 + y_85 >= 1
 c_1_86: y_86 + y_96 >= 1
 c_1_87: y_87 >= 1
 c_1_88: y_69 + y_88 >= 1
 c_1_89: y_57 + y_89 >= 1
 c_1_90: y_90 >= 1
 c_1_91: y_46 + y_91 >= 1
 c_1_92: y_65 + y_92 >= 1
 c_1_93: y_93 >= 1
 c_1_94: y_94 >= 1
 c_1_95: y_95 >= 1
 c_1_96: y_64 + y_86 + y_96 >= 1
 c_1_97: y_97 >= 1
 c_1_98: y_98 >= 1
 c_1_99: y_5 + y_14 + y_99 >= 1
Bounds
 Constant = 1
Binaries
 y_0 y_1 y_2 y_3 y_4 y_5 y_6 y_7 y_8 y_9 y_10 y_11 y_12 y_13 y_14 y_15 y_16
 y_17 y_18 y_19 y_20 y_21 y_22 y_23 y_24 y_25 y_26 y_27 y_28 y_29 y_30 y_31
 y_32 y_33 y_34 y_35 y_36 y_37 y_38 y_39 y_40 y_41 y_42 y_43 y_44 y_45 y_46
 y_47 y_48 y_49 y_50 y_51 y_52 y_53 y_54 y_55 y_56 y_57 y_58 y_59 y_60 y_61
 y_62 y_63 y_64 y_65 y_66 y_67 y_68 y_69 y_70 y_71 y_72 y_73 y_74 y_75 y_76
 y_77 y_78 y_79 y_80 y_81 y_82 y_83 y_84 y_85 y_86 y_87 y_88 y_89 y_90 y_91
 y_92 y_93 y_94 y_95 y_96 y_97 y_98 y_99
End
